NAME: FLS_170.hcp
COMMENT: 
TYPE: HCP
DIMENSION: 170
EDGE_DATA_FORMAT : EDGE_LIST
EDGE_DATA_SECTION
1 2
1 3
1 18
1 19
2 1
2 3
2 20
2 35
3 1
3 2
3 50
3 51
4 5
4 13
4 19
4 67
5 4
5 6
5 7
5 19
6 5
6 7
6 11
6 16
7 5
7 6
7 8
7 19
8 7
8 9
8 14
8 19
9 8
9 10
9 18
9 19
10 9
10 11
10 12
10 19
11 6
11 10
11 12
11 16
12 10
12 11
12 13
12 19
13 4
13 12
13 14
13 19
14 8
14 13
14 15
14 19
15 14
15 16
15 17
15 19
16 6
16 11
16 15
16 17
17 15
17 16
17 18
17 19
18 1
18 9
18 17
18 19
19 1
19 4
19 5
19 7
19 8
19 9
19 10
19 12
19 13
19 14
19 15
19 17
19 18
19 152
20 2
20 21
20 29
20 35
21 20
21 22
21 23
21 35
22 21
22 23
22 27
22 32
23 21
23 22
23 24
23 35
24 23
24 25
24 30
24 35
25 24
25 26
25 34
25 35
26 25
26 27
26 28
26 35
27 22
27 26
27 28
27 32
28 26
28 27
28 29
28 35
29 20
29 28
29 30
29 35
30 24
30 29
30 31
30 35
31 30
31 32
31 33
31 35
32 22
32 27
32 31
32 33
33 31
33 32
33 34
33 35
34 25
34 33
34 35
34 66
35 2
35 20
35 21
35 23
35 24
35 25
35 26
35 28
35 29
35 30
35 31
35 33
35 34
35 82
36 37
36 45
36 51
36 169
37 36
37 38
37 39
37 51
38 37
38 39
38 43
38 48
39 37
39 38
39 40
39 51
40 39
40 41
40 46
40 51
41 40
41 42
41 50
41 51
42 41
42 43
42 44
42 51
43 38
43 42
43 44
43 48
44 42
44 43
44 45
44 51
45 36
45 44
45 46
45 51
46 40
46 45
46 47
46 51
47 46
47 48
47 49
47 51
48 38
48 43
48 47
48 49
49 47
49 48
49 50
49 51
50 3
50 41
50 49
50 51
51 3
51 36
51 37
51 39
51 40
51 41
51 42
51 44
51 45
51 46
51 47
51 49
51 50
51 83
52 53
52 61
52 67
52 169
53 52
53 54
53 55
53 67
54 53
54 55
54 59
54 64
55 53
55 54
55 56
55 67
56 55
56 57
56 62
56 67
57 56
57 58
57 66
57 67
58 57
58 59
58 60
58 67
59 54
59 58
59 60
59 64
60 58
60 59
60 61
60 67
61 52
61 60
61 62
61 67
62 56
62 61
62 63
62 67
63 62
63 64
63 65
63 67
64 54
64 59
64 63
64 65
65 63
65 64
65 66
65 67
66 34
66 57
66 65
66 67
67 4
67 52
67 53
67 55
67 56
67 57
67 58
67 60
67 61
67 62
67 63
67 65
67 66
67 83
67 170
68 69
68 77
68 83
68 168
69 68
69 70
69 71
69 83
70 69
70 71
70 75
70 80
71 69
71 70
71 72
71 83
72 71
72 73
72 78
72 83
73 72
73 74
73 82
73 83
74 73
74 75
74 76
74 83
75 70
75 74
75 76
75 80
76 74
76 75
76 77
76 83
77 68
77 76
77 78
77 83
78 72
78 77
78 79
78 83
79 78
79 80
79 81
79 83
80 70
80 75
80 79
80 81
81 79
81 80
81 82
81 83
82 35
82 73
82 81
82 83
83 51
83 67
83 68
83 69
83 71
83 72
83 73
83 74
83 76
83 77
83 78
83 79
83 81
83 82
83 170
84 86
84 88
84 103
84 104
85 87
85 104
85 153
85 169
86 84
86 88
86 105
86 120
87 85
87 121
87 137
87 169
88 84
88 86
88 135
88 136
89 90
89 98
89 104
89 152
90 89
90 91
90 92
90 104
91 90
91 92
91 96
91 101
92 90
92 91
92 93
92 104
93 92
93 94
93 99
93 104
94 93
94 95
94 103
94 104
95 94
95 96
95 97
95 104
96 91
96 95
96 97
96 101
97 95
97 96
97 98
97 104
98 89
98 97
98 99
98 104
99 93
99 98
99 100
99 104
100 99
100 101
100 102
100 104
101 91
101 96
101 100
101 102
102 100
102 101
102 103
102 104
103 84
103 94
103 102
103 104
104 84
104 85
104 89
104 90
104 92
104 93
104 94
104 95
104 97
104 98
104 99
104 100
104 102
104 103
105 86
105 106
105 114
105 120
106 105
106 107
106 108
106 120
107 106
107 108
107 112
107 117
108 106
108 107
108 109
108 120
109 108
109 110
109 115
109 120
110 109
110 111
110 119
110 120
111 110
111 112
111 113
111 120
112 107
112 111
112 113
112 117
113 111
113 112
113 114
113 120
114 105
114 113
114 115
114 120
115 109
115 114
115 116
115 120
116 115
116 117
116 118
116 120
117 107
117 112
117 116
117 118
118 116
118 117
118 119
118 120
119 110
119 118
119 120
119 151
120 86
120 105
120 106
120 108
120 109
120 110
120 111
120 113
120 114
120 115
120 116
120 118
120 119
120 167
121 87
121 122
121 130
121 136
122 121
122 123
122 124
122 136
123 122
123 124
123 128
123 133
124 122
124 123
124 125
124 136
125 124
125 126
125 131
125 136
126 125
126 127
126 135
126 136
127 126
127 128
127 129
127 136
128 123
128 127
128 129
128 133
129 127
129 128
129 130
129 136
130 121
130 129
130 131
130 136
131 125
131 130
131 132
131 136
132 131
132 133
132 134
132 136
133 123
133 128
133 132
133 134
134 132
134 133
134 135
134 136
135 88
135 126
135 134
135 136
136 88
136 121
136 122
136 124
136 125
136 126
136 127
136 129
136 130
136 131
136 132
136 134
136 135
136 168
137 87
137 138
137 146
137 152
138 137
138 139
138 140
138 152
139 138
139 140
139 144
139 149
140 138
140 139
140 141
140 152
141 140
141 142
141 147
141 152
142 141
142 143
142 151
142 152
143 142
143 144
143 145
143 152
144 139
144 143
144 145
144 149
145 143
145 144
145 146
145 152
146 137
146 145
146 147
146 152
147 141
147 146
147 148
147 152
148 147
148 149
148 150
148 152
149 139
149 144
149 148
149 150
150 148
150 149
150 151
150 152
151 119
151 142
151 150
151 152
152 19
152 89
152 137
152 138
152 140
152 141
152 142
152 143
152 145
152 146
152 147
152 148
152 150
152 151
153 85
153 154
153 162
153 168
154 153
154 155
154 156
154 168
155 154
155 156
155 160
155 165
156 154
156 155
156 157
156 168
157 156
157 158
157 163
157 168
158 157
158 159
158 167
158 168
159 158
159 160
159 161
159 168
160 155
160 159
160 161
160 165
161 159
161 160
161 162
161 168
162 153
162 161
162 163
162 168
163 157
163 162
163 164
163 168
164 163
164 165
164 166
164 168
165 155
165 160
165 164
165 166
166 164
166 165
166 167
166 168
167 120
167 158
167 166
167 168
168 68
168 136
168 153
168 154
168 156
168 157
168 158
168 159
168 161
168 162
168 163
168 164
168 166
168 167
169 36
169 52
169 85
169 87
170 67
170 83
-1
EOF